benchmarks_CP/INST_64x64/50/inst64x64_50_17.dzn
S=8;
start=[|
-1,	46,	-1,	-1,	43,	-1,	26,	40,	-1,	-1,	-1,	30,	20,	-1,	63,	-1,	49,	-1,	-1,	13,	-1,	-1,	-1,	3,	-1,	-1,	25,	-1,	-1,	-1,	39,	18,	-1,	-1,	-1,	5,	37,	-1,	53,	4,	55,	-1,	1,	-1,	-1,	-1,	-1,	-1,	-1,	-1,	-1,	11,	-1,	34,	58,	-1,	-1,	61,	-1,	50,	-1,	-1,	-1,	31|
15,	-1,	52,	35,	21,	4,	-1,	38,	16,	-1,	39,	44,	-1,	-1,	-1,	-1,	54,	-1,	5,	57,	48,	-1,	-1,	20,	56,	53,	-1,	-1,	40,	-1,	-1,	-1,	19,	61,	-1,	-1,	32,	31,	8,	-1,	-1,	-1,	22,	41,	7,	-1,	12,	-1,	6,	27,	51,	-1,	-1,	-1,	-1,	25,	34,	-1,	59,	-1,	-1,	37,	18,	-1|
60,	28,	-1,	61,	51,	-1,	37,	-1,	-1,	-1,	-1,	18,	2,	31,	54,	56,	-1,	-1,	-1,	53,	22,	-1,	-1,	30,	-1,	-1,	-1,	52,	17,	-1,	-1,	-1,	49,	40,	46,	-1,	16,	-1,	-1,	33,	-1,	39,	32,	4,	-1,	9,	-1,	36,	38,	57,	14,	35,	-1,	-1,	-1,	-1,	12,	41,	-1,	20,	27,	11,	-1,	15|
41,	-1,	31,	-1,	44,	-1,	-1,	19,	53,	55,	-1,	5,	-1,	25,	52,	-1,	-1,	-1,	-1,	28,	-1,	9,	47,	35,	-1,	-1,	3,	-1,	63,	38,	-1,	16,	50,	-1,	-1,	42,	12,	-1,	-1,	-1,	-1,	-1,	-1,	14,	21,	-1,	-1,	37,	26,	10,	33,	62,	-1,	-1,	-1,	-1,	-1,	4,	32,	-1,	57,	-1,	-1,	-1|
-1,	-1,	58,	-1,	47,	-1,	2,	-1,	59,	38,	22,	-1,	51,	10,	43,	6,	45,	-1,	52,	29,	63,	-1,	11,	44,	-1,	32,	42,	41,	-1,	27,	8,	-1,	25,	17,	-1,	-1,	57,	-1,	15,	30,	-1,	31,	-1,	5,	13,	-1,	-1,	33,	-1,	-1,	-1,	56,	-1,	64,	-1,	36,	7,	48,	14,	62,	-1,	1,	16,	39|
-1,	30,	18,	10,	29,	49,	-1,	-1,	-1,	34,	-1,	47,	36,	8,	-1,	33,	27,	15,	-1,	-1,	16,	39,	-1,	6,	-1,	-1,	23,	-1,	64,	12,	4,	7,	48,	54,	-1,	3,	38,	9,	-1,	-1,	50,	-1,	-1,	59,	35,	-1,	26,	57,	41,	63,	5,	-1,	19,	-1,	-1,	32,	53,	-1,	28,	-1,	17,	43,	-1,	-1|
1,	11,	33,	57,	-1,	32,	27,	-1,	-1,	40,	-1,	-1,	49,	4,	28,	-1,	46,	-1,	-1,	-1,	-1,	-1,	7,	14,	19,	-1,	47,	-1,	-1,	-1,	-1,	31,	22,	-1,	60,	6,	63,	-1,	41,	64,	-1,	30,	51,	42,	53,	25,	-1,	-1,	13,	-1,	9,	-1,	-1,	61,	-1,	23,	-1,	-1,	-1,	-1,	10,	54,	-1,	21|
-1,	-1,	-1,	-1,	-1,	-1,	8,	-1,	-1,	12,	-1,	-1,	14,	-1,	57,	11,	60,	-1,	-1,	40,	31,	4,	33,	-1,	-1,	48,	-1,	-1,	10,	-1,	13,	-1,	21,	-1,	-1,	44,	-1,	29,	-1,	-1,	-1,	-1,	-1,	-1,	23,	-1,	43,	64,	30,	-1,	20,	-1,	52,	-1,	39,	-1,	-1,	63,	19,	9,	-1,	-1,	-1,	49|
-1,	41,	-1,	-1,	-1,	-1,	-1,	5,	-1,	2,	-1,	12,	6,	20,	31,	27,	-1,	-1,	48,	-1,	-1,	50,	63,	54,	-1,	16,	64,	-1,	23,	33,	24,	45,	-1,	25,	10,	39,	56,	60,	-1,	14,	17,	-1,	-1,	-1,	-1,	-1,	51,	43,	42,	35,	37,	-1,	-1,	-1,	38,	-1,	62,	29,	-1,	-1,	55,	22,	-1,	-1|
-1,	16,	-1,	-1,	-1,	27,	-1,	-1,	-1,	48,	-1,	28,	37,	-1,	-1,	-1,	-1,	-1,	62,	23,	38,	13,	4,	-1,	-1,	2,	1,	-1,	-1,	25,	22,	-1,	-1,	-1,	-1,	53,	-1,	49,	-1,	-1,	9,	-1,	36,	20,	24,	-1,	44,	56,	-1,	60,	-1,	32,	17,	-1,	47,	-1,	-1,	-1,	21,	-1,	-1,	-1,	-1,	-1|
-1,	23,	-1,	-1,	-1,	-1,	-1,	51,	-1,	-1,	9,	10,	4,	19,	35,	17,	20,	12,	25,	-1,	53,	42,	52,	-1,	60,	63,	-1,	-1,	41,	-1,	61,	-1,	-1,	3,	29,	-1,	-1,	37,	62,	-1,	64,	15,	-1,	-1,	-1,	-1,	-1,	14,	-1,	-1,	46,	55,	21,	-1,	24,	-1,	54,	11,	-1,	13,	-1,	-1,	-1,	43|
10,	59,	9,	14,	4,	3,	28,	-1,	50,	26,	-1,	-1,	11,	-1,	56,	42,	-1,	-1,	30,	-1,	35,	60,	44,	-1,	-1,	-1,	-1,	48,	-1,	54,	-1,	-1,	16,	-1,	5,	-1,	-1,	2,	36,	61,	33,	62,	-1,	45,	31,	37,	-1,	-1,	64,	-1,	63,	-1,	-1,	52,	-1,	-1,	-1,	-1,	18,	-1,	-1,	27,	-1,	12|
-1,	35,	-1,	60,	55,	-1,	53,	-1,	33,	-1,	-1,	54,	38,	-1,	25,	40,	5,	31,	8,	-1,	-1,	57,	-1,	-1,	59,	52,	10,	-1,	-1,	-1,	15,	-1,	45,	47,	21,	-1,	-1,	-1,	-1,	-1,	46,	-1,	58,	-1,	-1,	27,	-1,	-1,	-1,	-1,	49,	51,	2,	-1,	-1,	-1,	-1,	37,	56,	-1,	-1,	-1,	50,	4|
38,	56,	1,	17,	-1,	44,	-1,	6,	-1,	-1,	60,	61,	15,	-1,	-1,	-1,	37,	33,	-1,	26,	40,	-1,	-1,	-1,	-1,	-1,	62,	9,	58,	4,	51,	30,	-1,	55,	-1,	-1,	19,	-1,	50,	57,	-1,	-1,	-1,	-1,	-1,	-1,	-1,	53,	27,	-1,	-1,	8,	54,	-1,	11,	16,	10,	64,	42,	-1,	3,	-1,	-1,	-1|
31,	48,	63,	21,	-1,	-1,	22,	20,	-1,	14,	-1,	62,	57,	-1,	-1,	58,	59,	-1,	27,	47,	-1,	2,	-1,	-1,	44,	39,	-1,	43,	-1,	11,	50,	-1,	23,	64,	-1,	52,	26,	-1,	-1,	-1,	-1,	38,	-1,	-1,	16,	-1,	61,	42,	-1,	30,	45,	25,	-1,	10,	5,	-1,	-1,	-1,	-1,	32,	6,	9,	-1,	-1|
42,	-1,	34,	-1,	-1,	-1,	-1,	-1,	-1,	39,	-1,	23,	-1,	-1,	51,	-1,	24,	-1,	-1,	11,	-1,	18,	-1,	9,	8,	37,	31,	-1,	-1,	55,	-1,	-1,	-1,	-1,	38,	-1,	28,	63,	32,	40,	54,	10,	-1,	-1,	19,	35,	-1,	13,	50,	-1,	-1,	-1,	-1,	-1,	-1,	1,	44,	-1,	45,	53,	25,	58,	60,	-1|
-1,	29,	35,	-1,	-1,	-1,	4,	41,	55,	-1,	43,	-1,	-1,	-1,	40,	-1,	64,	-1,	16,	32,	39,	48,	-1,	-1,	49,	38,	7,	-1,	-1,	22,	-1,	52,	13,	20,	-1,	50,	8,	-1,	-1,	37,	62,	-1,	2,	54,	56,	-1,	58,	-1,	36,	-1,	-1,	-1,	26,	-1,	6,	12,	-1,	25,	-1,	11,	53,	-1,	-1,	-1|
-1,	37,	-1,	56,	-1,	-1,	-1,	45,	-1,	-1,	-1,	-1,	-1,	-1,	16,	48,	-1,	54,	35,	25,	-1,	40,	50,	10,	-1,	-1,	-1,	-1,	4,	5,	58,	23,	-1,	-1,	53,	-1,	-1,	-1,	7,	52,	-1,	42,	28,	-1,	34,	38,	-1,	-1,	61,	-1,	-1,	14,	63,	33,	18,	62,	-1,	-1,	-1,	-1,	-1,	-1,	55,	6|
16,	5,	-1,	39,	-1,	14,	-1,	18,	-1,	6,	52,	13,	19,	27,	-1,	-1,	-1,	23,	-1,	-1,	58,	36,	30,	-1,	15,	10,	46,	25,	62,	-1,	63,	24,	41,	-1,	35,	-1,	-1,	45,	-1,	22,	57,	60,	-1,	37,	1,	-1,	59,	-1,	9,	28,	-1,	-1,	-1,	43,	-1,	-1,	4,	40,	61,	56,	-1,	-1,	12,	64|
2,	40,	44,	-1,	-1,	-1,	33,	58,	-1,	11,	38,	24,	5,	-1,	17,	49,	-1,	-1,	-1,	-1,	18,	-1,	46,	8,	12,	31,	-1,	-1,	30,	26,	42,	-1,	56,	63,	6,	36,	9,	-1,	-1,	3,	20,	-1,	64,	19,	14,	4,	53,	48,	-1,	-1,	10,	59,	-1,	60,	-1,	52,	-1,	-1,	34,	-1,	-1,	-1,	28,	-1|
22,	52,	-1,	-1,	17,	7,	-1,	54,	-1,	-1,	63,	20,	9,	-1,	-1,	-1,	-1,	-1,	-1,	2,	-1,	-1,	53,	-1,	-1,	45,	37,	61,	-1,	-1,	59,	-1,	-1,	-1,	55,	-1,	5,	-1,	31,	18,	-1,	21,	-1,	-1,	40,	24,	-1,	-1,	-1,	-1,	4,	-1,	27,	30,	41,	56,	48,	-1,	-1,	-1,	14,	47,	36,	19|
-1,	10,	12,	49,	6,	-1,	11,	-1,	-1,	36,	-1,	56,	-1,	-1,	3,	34,	-1,	-1,	63,	-1,	-1,	-1,	-1,	-1,	13,	19,	57,	32,	18,	8,	-1,	35,	-1,	48,	-1,	-1,	-1,	39,	-1,	-1,	25,	-1,	23,	-1,	-1,	43,	-1,	47,	-1,	-1,	-1,	-1,	22,	7,	-1,	37,	9,	-1,	-1,	-1,	52,	-1,	54,	38|
-1,	64,	3,	-1,	34,	-1,	-1,	50,	-1,	-1,	57,	-1,	45,	-1,	8,	-1,	-1,	42,	-1,	4,	-1,	24,	-1,	49,	-1,	-1,	11,	-1,	-1,	-1,	-1,	27,	-1,	10,	-1,	62,	-1,	-1,	-1,	-1,	22,	12,	-1,	46,	-1,	63,	-1,	-1,	-1,	53,	-1,	-1,	-1,	40,	-1,	-1,	-1,	-1,	-1,	-1,	-1,	32,	17,	20|
21,	-1,	48,	9,	31,	43,	30,	-1,	12,	15,	-1,	39,	18,	-1,	44,	4,	56,	-1,	-1,	-1,	-1,	34,	-1,	37,	-1,	36,	-1,	60,	-1,	47,	-1,	64,	-1,	38,	-1,	-1,	-1,	-1,	27,	-1,	-1,	-1,	-1,	55,	8,	29,	50,	-1,	35,	46,	1,	13,	32,	-1,	-1,	3,	22,	2,	10,	-1,	-1,	-1,	45,	-1|
-1,	-1,	37,	-1,	-1,	-1,	-1,	43,	14,	49,	10,	31,	-1,	-1,	-1,	-1,	-1,	24,	-1,	-1,	46,	-1,	-1,	33,	62,	5,	21,	19,	-1,	63,	27,	4,	59,	-1,	-1,	-1,	-1,	-1,	3,	35,	23,	-1,	-1,	-1,	29,	13,	34,	-1,	-1,	39,	-1,	30,	-1,	47,	2,	-1,	20,	45,	-1,	7,	-1,	60,	42,	-1|
47,	-1,	49,	-1,	16,	52,	-1,	15,	-1,	57,	34,	-1,	-1,	18,	19,	38,	-1,	-1,	56,	-1,	-1,	-1,	-1,	11,	1,	12,	28,	2,	20,	31,	-1,	-1,	-1,	-1,	63,	32,	-1,	-1,	-1,	-1,	4,	-1,	53,	-1,	39,	-1,	-1,	45,	-1,	33,	-1,	-1,	41,	59,	51,	-1,	-1,	-1,	35,	40,	26,	30,	44,	55|
-1,	62,	21,	41,	40,	54,	58,	30,	8,	51,	17,	-1,	23,	28,	-1,	-1,	-1,	-1,	-1,	-1,	45,	-1,	-1,	4,	-1,	-1,	59,	38,	35,	-1,	-1,	-1,	47,	-1,	-1,	60,	11,	-1,	-1,	-1,	43,	20,	-1,	-1,	64,	-1,	14,	49,	-1,	26,	34,	-1,	44,	19,	-1,	-1,	-1,	39,	15,	61,	46,	-1,	9,	-1|
-1,	1,	-1,	-1,	59,	-1,	48,	-1,	39,	-1,	15,	-1,	54,	2,	4,	32,	57,	-1,	50,	-1,	19,	38,	10,	-1,	-1,	-1,	41,	-1,	16,	34,	37,	-1,	46,	-1,	-1,	-1,	62,	-1,	40,	27,	42,	-1,	-1,	-1,	25,	22,	-1,	24,	-1,	-1,	17,	-1,	-1,	-1,	45,	-1,	-1,	36,	-1,	-1,	58,	14,	-1,	-1|
4,	-1,	10,	11,	50,	39,	-1,	27,	-1,	9,	-1,	-1,	22,	56,	-1,	-1,	2,	-1,	-1,	8,	-1,	-1,	-1,	59,	24,	7,	18,	23,	42,	61,	-1,	-1,	-1,	16,	-1,	-1,	17,	-1,	49,	28,	-1,	-1,	-1,	12,	38,	46,	-1,	-1,	-1,	-1,	-1,	-1,	-1,	58,	-1,	20,	-1,	-1,	29,	6,	34,	-1,	43,	-1|
12,	14,	-1,	34,	-1,	8,	9,	-1,	3,	63,	-1,	-1,	59,	-1,	20,	-1,	-1,	29,	-1,	-1,	-1,	-1,	-1,	55,	53,	-1,	51,	6,	-1,	-1,	-1,	-1,	18,	41,	-1,	-1,	-1,	-1,	22,	31,	-1,	-1,	-1,	27,	57,	10,	-1,	-1,	-1,	4,	-1,	-1,	-1,	46,	-1,	54,	37,	-1,	48,	-1,	1,	19,	47,	11|
53,	-1,	-1,	55,	-1,	-1,	-1,	46,	11,	47,	24,	-1,	-1,	21,	61,	-1,	18,	-1,	-1,	51,	62,	22,	-1,	34,	-1,	15,	56,	45,	-1,	-1,	-1,	-1,	29,	-1,	2,	-1,	39,	-1,	38,	-1,	1,	-1,	37,	-1,	-1,	-1,	19,	59,	12,	-1,	64,	-1,	-1,	36,	-1,	-1,	-1,	10,	-1,	-1,	-1,	-1,	-1,	-1|
-1,	-1,	32,	51,	25,	2,	5,	-1,	-1,	46,	-1,	-1,	60,	13,	-1,	-1,	-1,	-1,	53,	58,	43,	-1,	20,	48,	-1,	54,	-1,	44,	-1,	-1,	26,	8,	-1,	24,	30,	14,	-1,	-1,	4,	42,	-1,	-1,	33,	9,	-1,	-1,	-1,	61,	-1,	-1,	-1,	22,	31,	37,	-1,	-1,	-1,	50,	62,	-1,	18,	-1,	-1,	57|
-1,	9,	27,	-1,	-1,	-1,	49,	-1,	56,	-1,	-1,	-1,	30,	-1,	32,	-1,	-1,	60,	-1,	1,	33,	-1,	-1,	-1,	-1,	-1,	29,	-1,	43,	-1,	-1,	51,	40,	37,	-1,	4,	-1,	-1,	-1,	-1,	26,	57,	-1,	-1,	-1,	18,	22,	-1,	5,	20,	-1,	38,	15,	16,	-1,	31,	-1,	6,	-1,	48,	-1,	46,	59,	-1|
-1,	-1,	61,	36,	-1,	30,	-1,	13,	6,	-1,	-1,	57,	64,	-1,	59,	-1,	41,	-1,	-1,	39,	-1,	35,	-1,	-1,	-1,	23,	8,	-1,	45,	10,	25,	-1,	-1,	-1,	-1,	19,	60,	16,	-1,	-1,	-1,	-1,	9,	-1,	-1,	51,	1,	-1,	-1,	-1,	28,	-1,	-1,	-1,	-1,	43,	-1,	24,	47,	31,	44,	18,	-1,	-1|
14,	-1,	-1,	23,	-1,	-1,	19,	32,	-1,	17,	37,	50,	34,	-1,	62,	18,	-1,	-1,	4,	-1,	24,	-1,	-1,	-1,	61,	-1,	63,	53,	5,	-1,	-1,	28,	-1,	-1,	45,	1,	21,	36,	-1,	-1,	48,	-1,	-1,	33,	-1,	40,	46,	58,	60,	47,	-1,	41,	35,	12,	-1,	26,	-1,	22,	-1,	49,	11,	20,	-1,	3|
29,	18,	-1,	4,	10,	20,	-1,	21,	-1,	61,	-1,	-1,	16,	-1,	5,	-1,	53,	45,	-1,	46,	-1,	-1,	42,	50,	3,	-1,	49,	-1,	-1,	-1,	38,	-1,	-1,	-1,	26,	-1,	-1,	-1,	-1,	-1,	-1,	14,	-1,	-1,	-1,	30,	-1,	-1,	8,	-1,	22,	-1,	-1,	-1,	17,	-1,	25,	-1,	63,	60,	-1,	55,	32,	62|
-1,	60,	-1,	52,	-1,	63,	59,	-1,	15,	29,	-1,	-1,	12,	-1,	-1,	-1,	8,	-1,	-1,	-1,	-1,	-1,	37,	40,	-1,	4,	33,	46,	-1,	-1,	-1,	41,	3,	50,	44,	-1,	23,	-1,	-1,	55,	-1,	36,	45,	-1,	28,	31,	-1,	-1,	62,	-1,	-1,	-1,	11,	54,	-1,	61,	30,	35,	-1,	-1,	-1,	-1,	-1,	-1|
-1,	17,	7,	-1,	28,	24,	3,	8,	-1,	-1,	-1,	35,	41,	38,	-1,	31,	43,	-1,	61,	-1,	-1,	15,	48,	-1,	-1,	55,	-1,	-1,	-1,	1,	-1,	2,	12,	13,	-1,	-1,	18,	-1,	20,	-1,	-1,	37,	-1,	6,	-1,	52,	29,	-1,	23,	50,	-1,	-1,	10,	39,	40,	57,	14,	54,	-1,	-1,	19,	-1,	4,	-1|
58,	-1,	-1,	-1,	41,	31,	-1,	1,	-1,	-1,	13,	63,	-1,	-1,	-1,	25,	-1,	44,	-1,	-1,	55,	-1,	-1,	-1,	-1,	22,	48,	20,	-1,	21,	-1,	-1,	-1,	62,	-1,	61,	46,	-1,	11,	10,	49,	-1,	-1,	38,	12,	-1,	17,	-1,	-1,	37,	30,	34,	-1,	-1,	-1,	59,	-1,	-1,	52,	64,	-1,	-1,	-1,	40|
-1,	-1,	-1,	44,	-1,	-1,	54,	53,	28,	10,	-1,	60,	-1,	-1,	-1,	20,	-1,	-1,	49,	-1,	-1,	32,	57,	-1,	39,	-1,	-1,	-1,	59,	6,	-1,	42,	-1,	-1,	52,	-1,	31,	-1,	-1,	9,	-1,	-1,	19,	43,	-1,	41,	-1,	63,	18,	24,	3,	-1,	64,	-1,	36,	55,	1,	-1,	-1,	-1,	-1,	61,	38,	-1|
8,	-1,	-1,	28,	18,	-1,	17,	-1,	5,	24,	36,	-1,	-1,	29,	-1,	39,	31,	-1,	43,	-1,	6,	-1,	55,	-1,	-1,	-1,	38,	4,	-1,	7,	34,	-1,	-1,	-1,	-1,	-1,	58,	-1,	35,	15,	13,	1,	50,	-1,	44,	16,	10,	46,	-1,	-1,	32,	-1,	-1,	-1,	-1,	-1,	45,	14,	12,	2,	59,	-1,	63,	37|
9,	54,	29,	-1,	-1,	33,	-1,	57,	-1,	-1,	28,	-1,	56,	30,	-1,	-1,	-1,	32,	34,	37,	-1,	-1,	13,	-1,	-1,	43,	-1,	58,	-1,	42,	-1,	-1,	-1,	-1,	25,	40,	52,	3,	16,	-1,	8,	19,	-1,	-1,	-1,	7,	-1,	12,	10,	-1,	-1,	-1,	20,	41,	-1,	14,	11,	17,	-1,	-1,	-1,	36,	-1,	-1|
51,	-1,	-1,	38,	48,	12,	46,	-1,	60,	-1,	32,	9,	-1,	40,	-1,	26,	-1,	4,	1,	-1,	8,	-1,	-1,	41,	57,	-1,	35,	-1,	33,	-1,	-1,	-1,	-1,	39,	50,	-1,	-1,	64,	19,	-1,	-1,	43,	17,	23,	-1,	3,	-1,	28,	-1,	55,	29,	21,	-1,	-1,	-1,	-1,	6,	27,	-1,	-1,	15,	-1,	-1,	-1|
-1,	-1,	-1,	27,	-1,	-1,	-1,	62,	61,	18,	-1,	-1,	3,	-1,	-1,	-1,	40,	-1,	-1,	60,	-1,	33,	-1,	-1,	6,	-1,	44,	-1,	-1,	39,	28,	-1,	-1,	21,	-1,	20,	-1,	-1,	-1,	43,	14,	48,	-1,	57,	-1,	54,	64,	29,	-1,	-1,	7,	4,	13,	9,	16,	8,	41,	5,	-1,	34,	30,	38,	35,	-1|
-1,	55,	14,	3,	13,	40,	-1,	63,	57,	20,	-1,	-1,	-1,	-1,	37,	59,	39,	50,	18,	17,	-1,	28,	16,	-1,	-1,	61,	32,	-1,	9,	-1,	-1,	-1,	6,	-1,	-1,	2,	-1,	-1,	48,	-1,	35,	-1,	-1,	51,	-1,	-1,	-1,	-1,	-1,	-1,	-1,	-1,	-1,	-1,	27,	-1,	49,	26,	44,	-1,	64,	-1,	10,	-1|
43,	45,	26,	22,	-1,	-1,	-1,	-1,	-1,	-1,	35,	-1,	-1,	47,	-1,	-1,	9,	2,	-1,	-1,	-1,	7,	-1,	-1,	-1,	-1,	-1,	-1,	24,	-1,	-1,	3,	-1,	-1,	28,	-1,	-1,	61,	30,	-1,	41,	56,	4,	36,	-1,	42,	38,	21,	53,	-1,	-1,	-1,	58,	31,	37,	-1,	-1,	-1,	-1,	-1,	-1,	-1,	33,	-1|
-1,	49,	39,	19,	58,	34,	-1,	-1,	48,	13,	-1,	8,	-1,	-1,	38,	62,	3,	-1,	24,	-1,	12,	-1,	-1,	23,	54,	14,	22,	-1,	-1,	-1,	18,	-1,	7,	45,	33,	47,	-1,	32,	-1,	-1,	-1,	-1,	27,	-1,	-1,	5,	25,	31,	59,	56,	57,	-1,	30,	-1,	-1,	-1,	40,	-1,	20,	52,	-1,	4,	1,	-1|
20,	15,	50,	-1,	-1,	-1,	-1,	-1,	19,	25,	-1,	-1,	-1,	63,	-1,	-1,	-1,	-1,	-1,	-1,	21,	-1,	61,	38,	-1,	8,	-1,	11,	-1,	-1,	-1,	-1,	27,	-1,	13,	-1,	-1,	51,	-1,	17,	-1,	45,	-1,	-1,	-1,	33,	62,	-1,	-1,	-1,	-1,	18,	39,	35,	-1,	5,	-1,	-1,	-1,	-1,	54,	-1,	-1,	32|
-1,	58,	28,	46,	8,	-1,	-1,	37,	-1,	-1,	-1,	-1,	7,	-1,	-1,	2,	14,	-1,	-1,	-1,	25,	26,	-1,	29,	-1,	-1,	40,	-1,	15,	43,	-1,	21,	-1,	11,	3,	45,	51,	-1,	55,	32,	63,	18,	-1,	-1,	-1,	-1,	-1,	-1,	20,	-1,	-1,	12,	-1,	4,	57,	30,	-1,	38,	13,	17,	-1,	44,	-1,	23|
63,	-1,	-1,	33,	-1,	61,	51,	-1,	41,	-1,	46,	-1,	1,	-1,	60,	-1,	32,	53,	-1,	24,	13,	45,	12,	-1,	48,	64,	-1,	-1,	52,	-1,	23,	-1,	31,	43,	-1,	-1,	7,	-1,	57,	-1,	59,	-1,	25,	-1,	-1,	-1,	-1,	-1,	11,	42,	56,	-1,	49,	-1,	-1,	27,	-1,	-1,	-1,	55,	9,	-1,	20,	-1|
23,	-1,	-1,	-1,	7,	53,	12,	-1,	58,	-1,	42,	38,	-1,	57,	-1,	55,	-1,	-1,	47,	5,	49,	-1,	43,	-1,	45,	-1,	60,	-1,	-1,	-1,	41,	56,	-1,	34,	-1,	-1,	61,	-1,	-1,	19,	3,	22,	29,	-1,	50,	-1,	39,	51,	17,	-1,	25,	-1,	59,	-1,	31,	-1,	-1,	30,	-1,	15,	21,	-1,	-1,	36|
-1,	21,	-1,	30,	-1,	-1,	-1,	-1,	9,	53,	20,	33,	24,	39,	-1,	-1,	-1,	6,	-1,	-1,	57,	8,	40,	56,	-1,	-1,	-1,	-1,	29,	14,	-1,	-1,	2,	58,	16,	-1,	22,	-1,	59,	62,	36,	-1,	38,	15,	46,	-1,	-1,	32,	47,	-1,	-1,	-1,	-1,	5,	-1,	7,	3,	43,	-1,	4,	-1,	31,	-1,	63|
-1,	-1,	42,	48,	-1,	59,	-1,	24,	18,	-1,	40,	-1,	31,	-1,	-1,	13,	-1,	-1,	64,	-1,	-1,	-1,	22,	-1,	4,	-1,	-1,	-1,	38,	-1,	-1,	-1,	-1,	29,	1,	-1,	44,	-1,	46,	5,	-1,	-1,	-1,	-1,	33,	21,	23,	20,	-1,	51,	6,	-1,	36,	-1,	-1,	19,	32,	-1,	-1,	-1,	50,	-1,	53,	7|
-1,	-1,	-1,	-1,	54,	-1,	-1,	16,	-1,	-1,	5,	-1,	-1,	-1,	47,	-1,	-1,	58,	-1,	-1,	2,	62,	59,	-1,	-1,	-1,	50,	-1,	-1,	30,	-1,	-1,	-1,	23,	-1,	49,	36,	-1,	-1,	38,	-1,	7,	41,	35,	4,	-1,	31,	-1,	-1,	32,	-1,	-1,	-1,	28,	14,	-1,	57,	18,	11,	42,	61,	-1,	22,	48|
-1,	-1,	38,	-1,	-1,	41,	-1,	-1,	-1,	-1,	-1,	-1,	29,	44,	-1,	-1,	21,	48,	46,	-1,	37,	54,	-1,	-1,	-1,	-1,	55,	-1,	6,	59,	32,	-1,	-1,	-1,	8,	64,	20,	53,	25,	12,	-1,	-1,	-1,	47,	-1,	28,	57,	19,	-1,	-1,	16,	60,	45,	-1,	26,	-1,	56,	-1,	1,	58,	24,	10,	-1,	-1|
39,	-1,	56,	47,	-1,	-1,	31,	34,	25,	64,	-1,	4,	-1,	-1,	-1,	28,	19,	61,	55,	9,	-1,	-1,	23,	-1,	-1,	-1,	-1,	33,	-1,	51,	-1,	-1,	-1,	-1,	-1,	21,	6,	17,	-1,	50,	53,	27,	8,	60,	-1,	-1,	-1,	-1,	-1,	58,	-1,	44,	-1,	-1,	62,	46,	5,	59,	41,	37,	-1,	52,	14,	16|
-1,	-1,	4,	-1,	64,	42,	-1,	29,	-1,	-1,	-1,	58,	25,	11,	7,	-1,	13,	27,	-1,	-1,	10,	47,	-1,	39,	-1,	59,	-1,	-1,	12,	41,	-1,	62,	35,	-1,	-1,	26,	49,	50,	60,	45,	52,	-1,	14,	-1,	37,	57,	-1,	-1,	2,	54,	61,	-1,	28,	38,	-1,	-1,	21,	-1,	5,	46,	-1,	53,	-1,	51|
54,	-1,	30,	12,	-1,	-1,	24,	-1,	-1,	56,	-1,	-1,	-1,	42,	-1,	52,	-1,	40,	60,	-1,	-1,	-1,	-1,	-1,	31,	-1,	-1,	-1,	-1,	-1,	9,	48,	39,	-1,	34,	46,	3,	-1,	23,	20,	-1,	-1,	43,	25,	-1,	-1,	-1,	16,	-1,	-1,	47,	-1,	5,	-1,	8,	-1,	-1,	-1,	36,	-1,	4,	41,	49,	10|
-1,	-1,	59,	-1,	33,	51,	-1,	-1,	-1,	-1,	62,	19,	-1,	34,	-1,	-1,	29,	1,	31,	-1,	9,	-1,	38,	53,	42,	-1,	5,	35,	-1,	50,	21,	-1,	55,	-1,	7,	43,	48,	-1,	-1,	-1,	15,	-1,	-1,	-1,	10,	58,	27,	17,	-1,	-1,	-1,	-1,	-1,	56,	30,	-1,	-1,	-1,	64,	-1,	32,	-1,	-1,	-1|
-1,	26,	-1,	16,	-1,	-1,	-1,	36,	29,	-1,	59,	-1,	-1,	-1,	46,	-1,	-1,	43,	-1,	34,	44,	5,	18,	-1,	38,	-1,	4,	10,	49,	-1,	-1,	-1,	52,	-1,	-1,	63,	27,	-1,	9,	11,	-1,	35,	13,	8,	-1,	-1,	56,	30,	37,	62,	-1,	19,	53,	-1,	22,	-1,	-1,	-1,	7,	-1,	33,	-1,	-1,	-1|
27,	-1,	22,	15,	49,	35,	-1,	-1,	-1,	1,	-1,	32,	28,	-1,	-1,	16,	-1,	-1,	58,	-1,	20,	-1,	-1,	-1,	11,	51,	-1,	-1,	-1,	-1,	-1,	-1,	-1,	-1,	61,	18,	-1,	-1,	21,	-1,	-1,	59,	63,	-1,	-1,	50,	-1,	60,	46,	-1,	-1,	-1,	23,	29,	-1,	4,	-1,	9,	17,	3,	-1,	40,	26,	44|
-1,	25,	62,	-1,	23,	13,	61,	48,	-1,	43,	49,	-1,	55,	-1,	30,	-1,	-1,	11,	45,	-1,	42,	-1,	-1,	-1,	14,	-1,	-1,	-1,	8,	-1,	56,	-1,	32,	12,	64,	-1,	53,	10,	24,	-1,	38,	54,	-1,	-1,	22,	-1,	4,	5,	-1,	-1,	-1,	57,	9,	-1,	33,	-1,	-1,	31,	27,	-1,	-1,	50,	-1,	-1|
34,	2,	-1,	63,	5,	-1,	-1,	-1,	-1,	31,	8,	-1,	35,	-1,	-1,	41,	51,	14,	-1,	-1,	-1,	37,	3,	26,	-1,	58,	36,	-1,	-1,	53,	54,	20,	-1,	56,	-1,	33,	-1,	-1,	1,	59,	-1,	-1,	-1,	39,	-1,	-1,	6,	9,	-1,	-1,	43,	-1,	-1,	27,	13,	-1,	60,	-1,	55,	12,	-1,	24,	23,	47|
45,	19,	46,	43,	-1,	-1,	39,	14,	-1,	37,	-1,	-1,	-1,	-1,	27,	50,	35,	-1,	6,	49,	4,	59,	56,	57,	47,	3,	2,	-1,	-1,	-1,	7,	-1,	-1,	30,	58,	-1,	-1,	38,	5,	-1,	21,	-1,	31,	44,	-1,	36,	-1,	-1,	-1,	64,	-1,	26,	16,	-1,	-1,	-1,	15,	13,	-1,	-1,	-1,	34,	52,	42|];
