sudoku-ls/benchmarks_LEQ/INST_64x64/50/inst64x64_50_17.txt
8
1
56	46	54	59	43	-1	-1	40	64	-1	-1	30	-1	9	-1	35	-1	62	-1	13	51	10	8	3	-1	-1	25	15	-1	60	39	18	14	-1	24	-1	37	-1	-1	-1	-1	-1	-1	17	-1	-1	-1	38	-1	7	21	-1	-1	-1	58	44	42	61	-1	-1	36	45	-1	31
-1	36	-1	35	21	-1	63	-1	16	-1	39	-1	13	17	-1	3	-1	64	5	57	-1	55	24	20	-1	53	-1	14	-1	49	-1	9	-1	61	-1	-1	32	31	-1	-1	-1	-1	-1	41	-1	-1	-1	2	-1	-1	51	-1	60	50	-1	-1	34	46	59	26	-1	37	18	-1
60	-1	13	-1	51	48	-1	-1	-1	50	-1	18	2	31	-1	-1	-1	25	26	-1	22	1	-1	30	-1	-1	24	52	17	-1	-1	-1	-1	-1	46	-1	-1	7	47	33	44	-1	32	4	-1	9	-1	-1	38	57	-1	-1	42	-1	59	29	12	-1	-1	20	-1	11	58	-1
41	-1	-1	-1	44	45	-1	-1	53	55	27	-1	58	-1	52	60	-1	56	-1	28	23	9	47	-1	-1	11	3	-1	63	38	-1	-1	-1	51	-1	42	-1	-1	39	-1	18	46	49	-1	-1	-1	40	37	26	-1	33	-1	48	-1	54	15	64	4	32	-1	57	-1	-1	-1
-1	12	-1	53	47	-1	-1	23	-1	38	22	46	-1	-1	43	-1	-1	37	52	-1	63	19	11	44	-1	32	42	41	21	-1	8	-1	25	17	-1	-1	57	26	-1	-1	34	-1	-1	-1	-1	60	-1	-1	4	49	18	-1	40	-1	3	36	-1	48	-1	-1	35	1	16	-1
25	30	18	-1	29	49	-1	22	1	34	21	47	36	-1	24	-1	-1	-1	2	42	-1	-1	-1	-1	37	-1	-1	-1	-1	12	4	-1	-1	-1	-1	3	-1	9	56	13	-1	52	-1	-1	-1	-1	-1	57	41	-1	-1	31	-1	45	-1	32	53	55	-1	44	17	43	-1	60
-1	11	33	57	-1	-1	-1	-1	26	40	-1	29	49	4	-1	-1	-1	-1	-1	38	-1	43	-1	14	19	-1	-1	-1	-1	62	35	-1	-1	2	60	6	-1	-1	-1	64	-1	30	51	42	53	-1	-1	-1	13	17	9	16	-1	-1	55	23	52	56	-1	-1	10	-1	3	-1
17	-1	-1	-1	3	-1	-1	-1	32	12	-1	-1	-1	-1	-1	-1	60	41	-1	40	31	4	33	-1	58	48	26	54	-1	46	-1	-1	-1	1	27	44	-1	-1	45	36	-1	16	56	28	23	-1	-1	-1	30	2	-1	-1	52	24	-1	-1	38	63	-1	-1	22	25	51	49
26	-1	-1	-1	-1	-1	-1	-1	-1	2	-1	12	-1	20	31	-1	-1	-1	48	-1	15	-1	-1	54	-1	16	64	-1	23	-1	-1	45	-1	25	-1	39	-1	-1	-1	14	17	4	-1	-1	30	-1	51	-1	42	35	37	-1	-1	-1	-1	-1	62	-1	-1	-1	-1	22	-1	46
11	-1	64	-1	-1	27	29	-1	63	-1	45	28	37	-1	-1	-1	-1	-1	62	-1	38	-1	-1	-1	35	2	1	-1	-1	25	22	57	-1	-1	-1	-1	-1	-1	12	-1	9	50	36	-1	24	59	44	-1	-1	-1	-1	-1	17	26	47	34	19	51	21	30	-1	-1	-1	52
33	-1	-1	-1	-1	47	-1	-1	-1	-1	9	10	4	19	-1	-1	-1	12	25	-1	-1	42	52	32	-1	63	27	-1	-1	-1	-1	49	1	-1	-1	48	-1	37	62	-1	-1	15	-1	-1	6	-1	8	14	-1	36	-1	55	21	44	-1	22	-1	11	-1	13	-1	28	2	-1
10	59	-1	-1	-1	3	28	25	50	26	55	-1	11	32	56	-1	58	-1	30	22	-1	-1	44	21	-1	17	20	48	53	-1	6	-1	-1	-1	5	-1	-1	-1	-1	61	33	-1	-1	45	-1	-1	-1	-1	-1	-1	63	15	-1	-1	43	-1	39	-1	18	-1	40	-1	-1	-1
13	35	24	60	55	-1	53	12	33	-1	16	54	38	-1	-1	-1	5	-1	-1	-1	29	-1	-1	43	-1	-1	10	42	-1	36	-1	-1	-1	-1	-1	11	-1	22	-1	-1	-1	32	-1	-1	48	27	28	23	39	-1	49	51	2	-1	61	-1	26	-1	56	-1	-1	17	50	-1
-1	56	-1	-1	52	44	45	6	47	-1	-1	-1	-1	59	13	-1	-1	-1	-1	-1	-1	-1	-1	46	32	28	-1	9	58	-1	-1	-1	-1	55	41	-1	19	35	-1	-1	-1	-1	21	-1	63	-1	5	53	27	-1	-1	-1	-1	-1	11	16	10	-1	-1	36	3	48	34	24
-1	-1	63	-1	46	-1	-1	-1	36	-1	-1	-1	57	-1	29	-1	59	-1	27	47	41	2	17	19	-1	-1	-1	43	-1	11	-1	-1	-1	64	4	-1	26	8	-1	54	60	-1	18	-1	16	-1	-1	-1	28	-1	-1	-1	56	-1	-1	33	-1	-1	49	-1	-1	9	-1	-1
-1	43	-1	2	-1	15	62	-1	52	39	30	-1	-1	46	51	64	24	16	-1	-1	-1	18	36	-1	-1	-1	-1	-1	-1	-1	29	-1	-1	-1	-1	-1	-1	-1	-1	-1	-1	10	3	22	19	35	41	13	50	12	-1	6	-1	57	48	1	44	33	-1	53	-1	58	-1	-1
57	-1	-1	-1	-1	1	4	41	55	28	43	59	46	-1	40	-1	-1	21	-1	-1	-1	48	-1	-1	-1	-1	-1	3	-1	22	33	52	-1	-1	19	50	-1	-1	61	-1	62	-1	-1	54	-1	17	58	-1	-1	-1	-1	-1	26	-1	-1	12	18	-1	30	11	-1	-1	-1	-1
-1	37	19	56	-1	-1	20	-1	30	32	-1	-1	-1	1	16	48	-1	54	-1	25	27	40	50	10	43	-1	9	-1	4	5	58	-1	-1	-1	-1	12	2	-1	-1	52	51	42	28	13	-1	-1	-1	3	61	8	31	-1	-1	-1	18	-1	59	44	-1	-1	-1	57	55	6
16	-1	51	39	-1	-1	-1	-1	-1	6	-1	13	19	27	26	-1	38	-1	-1	55	-1	36	30	-1	15	-1	46	-1	62	48	-1	-1	41	49	-1	-1	-1	-1	-1	22	57	60	-1	-1	1	32	59	7	9	-1	-1	-1	-1	43	-1	2	-1	40	-1	-1	-1	-1	-1	-1
-1	40	44	-1	-1	-1	33	-1	-1	11	-1	24	5	-1	-1	-1	47	7	57	-1	-1	51	-1	-1	-1	-1	-1	16	30	-1	42	-1	-1	63	-1	36	9	23	-1	3	20	41	64	-1	-1	4	53	48	-1	45	-1	-1	-1	60	21	-1	-1	-1	34	-1	37	35	28	50
22	52	25	8	17	7	38	-1	-1	58	63	-1	-1	-1	-1	-1	12	13	-1	2	-1	11	-1	-1	50	45	37	-1	34	28	-1	6	-1	32	-1	-1	5	-1	31	-1	-1	-1	-1	49	-1	-1	35	26	-1	16	-1	-1	27	-1	-1	56	-1	-1	-1	-1	-1	47	36	-1
-1	-1	12	49	-1	-1	11	-1	42	-1	-1	-1	53	-1	3	-1	26	20	-1	-1	-1	-1	62	15	13	19	-1	-1	18	8	-1	35	-1	-1	-1	16	-1	-1	-1	-1	-1	61	-1	-1	45	-1	30	47	58	29	-1	5	22	7	64	37	-1	60	33	27	52	21	-1	38
28	-1	3	13	-1	-1	-1	-1	35	54	57	-1	-1	60	8	-1	6	42	33	-1	-1	-1	-1	-1	-1	41	11	-1	2	56	-1	27	-1	10	-1	-1	43	30	14	21	22	12	5	46	36	63	18	52	51	53	48	39	-1	-1	19	-1	-1	-1	-1	1	-1	-1	-1	20
-1	63	-1	9	31	-1	30	-1	12	15	-1	39	18	-1	-1	-1	56	52	19	59	28	-1	-1	37	-1	-1	-1	60	-1	-1	-1	64	-1	-1	40	25	-1	57	27	24	-1	33	6	-1	8	-1	-1	11	35	-1	1	13	32	17	-1	-1	-1	2	-1	41	-1	23	45	-1
44	61	-1	-1	38	6	-1	43	14	-1	10	31	-1	-1	-1	-1	36	-1	40	52	-1	-1	64	33	-1	-1	-1	19	-1	-1	27	-1	-1	-1	-1	-1	-1	55	3	-1	23	-1	-1	32	-1	-1	-1	-1	-1	-1	-1	-1	57	47	2	-1	-1	-1	22	7	12	60	42	17
47	22	-1	-1	-1	-1	-1	15	-1	57	-1	-1	-1	18	19	-1	-1	9	-1	-1	54	23	-1	-1	-1	-1	-1	2	-1	-1	60	46	-1	-1	-1	32	-1	-1	-1	25	-1	-1	53	-1	39	8	-1	45	7	33	-1	48	-1	-1	-1	10	-1	-1	35	-1	-1	-1	44	55
24	-1	21	-1	40	54	-1	30	-1	-1	-1	7	-1	-1	-1	29	-1	5	13	-1	-1	12	-1	4	-1	57	-1	38	35	-1	3	22	-1	-1	37	-1	11	52	10	6	43	-1	16	-1	-1	-1	-1	49	-1	-1	34	-1	44	-1	42	-1	27	-1	15	-1	46	-1	9	-1
7	-1	-1	-1	59	28	-1	-1	39	35	15	55	54	2	-1	32	-1	3	50	-1	19	38	-1	-1	-1	49	41	-1	16	-1	37	29	46	-1	12	8	-1	-1	-1	-1	42	26	30	-1	-1	22	-1	24	52	-1	17	-1	43	23	45	-1	-1	36	53	-1	-1	-1	5	-1
-1	13	10	11	-1	-1	36	27	45	-1	-1	-1	22	56	48	-1	-1	-1	37	8	26	-1	60	-1	-1	7	-1	-1	42	-1	47	33	-1	-1	-1	-1	-1	19	49	28	31	44	-1	-1	-1	-1	-1	-1	-1	5	35	-1	-1	58	-1	-1	-1	32	29	-1	34	-1	43	41
-1	-1	-1	34	45	8	-1	-1	3	-1	26	-1	-1	-1	-1	30	-1	29	-1	61	32	44	39	-1	53	-1	-1	6	25	58	-1	36	-1	41	23	13	64	-1	22	-1	-1	5	62	27	-1	10	7	35	-1	-1	-1	-1	24	46	50	-1	-1	-1	-1	-1	-1	19	-1	11
-1	31	-1	55	63	57	42	46	-1	47	-1	-1	44	-1	-1	-1	18	-1	-1	51	62	22	-1	34	-1	15	56	-1	50	9	48	-1	29	-1	-1	7	39	-1	-1	-1	-1	-1	-1	58	-1	-1	-1	59	-1	40	64	-1	-1	-1	32	60	-1	-1	4	-1	8	49	-1	54
-1	3	-1	51	-1	2	-1	35	-1	-1	64	-1	-1	13	36	-1	-1	49	-1	-1	43	-1	-1	48	10	-1	52	44	-1	-1	26	-1	34	-1	30	-1	45	1	4	-1	-1	-1	33	-1	41	56	-1	61	-1	6	15	22	31	37	29	-1	23	-1	-1	38	18	59	-1	-1
62	9	-1	-1	-1	-1	49	-1	-1	-1	58	21	30	53	-1	-1	23	60	54	1	-1	17	28	-1	52	-1	29	47	43	-1	11	51	40	-1	-1	4	-1	-1	2	39	26	-1	7	3	61	18	22	10	-1	-1	42	-1	-1	16	-1	31	36	6	-1	48	41	-1	59	13
-1	-1	61	-1	15	-1	-1	13	-1	-1	3	-1	64	-1	59	54	-1	-1	-1	-1	11	-1	2	58	26	23	8	34	-1	10	-1	-1	-1	22	-1	-1	60	-1	63	48	5	55	9	-1	-1	51	-1	50	-1	21	28	-1	-1	-1	4	43	17	24	47	-1	44	18	-1	27
14	39	16	-1	-1	-1	-1	-1	-1	17	37	-1	34	55	-1	18	10	59	4	-1	24	56	27	-1	61	-1	-1	53	5	15	31	28	57	-1	-1	-1	21	-1	6	29	48	-1	-1	-1	54	-1	46	58	-1	-1	-1	41	35	12	25	-1	51	22	-1	49	11	20	-1	-1
29	18	-1	4	10	-1	34	21	24	-1	-1	-1	-1	23	-1	43	53	-1	9	-1	52	-1	42	-1	3	-1	-1	57	-1	-1	38	-1	-1	59	-1	-1	-1	15	64	-1	11	-1	-1	56	2	30	13	-1	-1	44	22	-1	-1	48	17	58	25	-1	-1	-1	-1	55	-1	62
48	60	-1	-1	26	-1	59	47	15	-1	-1	-1	12	51	-1	-1	-1	22	-1	-1	-1	6	-1	40	17	4	33	-1	-1	24	-1	-1	3	50	44	-1	23	-1	58	55	-1	-1	-1	53	-1	31	21	-1	-1	13	-1	-1	11	54	56	-1	-1	-1	-1	-1	5	-1	57	-1
64	-1	-1	45	28	-1	-1	-1	-1	22	11	35	-1	38	42	-1	-1	63	61	-1	47	-1	48	5	16	-1	58	-1	60	1	-1	-1	12	-1	-1	56	18	25	-1	-1	-1	37	-1	6	59	52	-1	44	-1	-1	-1	-1	10	39	40	-1	-1	-1	-1	-1	-1	-1	4	53
58	-1	57	-1	-1	31	-1	-1	7	-1	-1	-1	8	26	-1	-1	16	44	36	19	-1	-1	-1	51	18	22	48	20	-1	21	14	-1	28	-1	-1	61	-1	43	-1	-1	49	24	60	-1	-1	-1	-1	4	45	-1	30	-1	-1	-1	53	59	50	42	52	64	2	15	39	-1
-1	51	-1	44	56	-1	-1	53	28	-1	-1	-1	-1	48	2	20	-1	26	-1	21	-1	-1	-1	12	-1	-1	-1	7	59	6	-1	-1	-1	35	-1	27	-1	-1	-1	9	-1	-1	19	43	-1	-1	16	-1	18	24	3	33	64	-1	-1	-1	-1	23	-1	45	-1	61	38	58
8	-1	-1	28	18	-1	-1	-1	-1	-1	36	51	33	-1	53	-1	31	19	43	20	-1	49	55	52	-1	30	38	4	27	-1	-1	-1	-1	57	-1	-1	58	62	-1	15	13	1	-1	-1	-1	16	10	-1	-1	-1	32	-1	-1	-1	-1	-1	-1	14	12	2	-1	-1	63	-1
-1	54	-1	6	35	-1	-1	57	21	4	-1	64	56	30	-1	-1	62	32	34	-1	59	-1	-1	-1	51	43	53	-1	-1	42	-1	55	-1	46	25	40	52	3	16	-1	-1	19	39	61	47	7	2	12	-1	-1	-1	63	20	41	-1	14	-1	17	50	24	-1	36	31	18
-1	-1	36	-1	-1	-1	-1	31	60	52	-1	9	-1	-1	58	-1	-1	-1	-1	14	8	53	-1	-1	57	13	-1	49	33	-1	-1	-1	5	-1	50	-1	10	64	-1	63	30	43	17	-1	-1	3	-1	28	24	55	-1	-1	34	2	44	-1	-1	-1	16	25	15	56	-1	61
59	24	-1	27	11	-1	25	62	-1	18	50	-1	3	-1	-1	46	40	-1	-1	-1	-1	33	51	-1	6	56	-1	-1	-1	39	-1	-1	37	-1	-1	20	1	-1	42	43	14	-1	-1	-1	-1	-1	64	29	-1	52	7	-1	13	-1	16	-1	41	5	-1	-1	30	-1	-1	22
30	-1	-1	-1	-1	40	-1	63	-1	-1	-1	-1	-1	12	-1	59	-1	50	18	-1	5	-1	16	-1	-1	-1	-1	-1	9	-1	-1	60	6	-1	36	-1	41	24	48	56	35	34	15	51	-1	53	52	22	54	38	62	46	33	-1	27	45	-1	26	-1	-1	64	-1	-1	8
43	-1	-1	22	-1	5	23	-1	-1	16	-1	-1	-1	-1	1	44	9	-1	10	48	64	-1	-1	63	40	46	15	62	24	20	-1	-1	8	18	28	-1	14	61	-1	60	-1	-1	-1	36	49	-1	-1	-1	-1	-1	-1	17	-1	-1	-1	6	55	-1	39	19	-1	51	33	-1
61	-1	-1	-1	58	34	-1	-1	48	-1	6	-1	17	-1	-1	62	3	46	-1	-1	-1	-1	26	23	54	-1	22	50	36	64	18	10	-1	45	33	-1	-1	-1	-1	-1	-1	-1	-1	11	-1	-1	-1	-1	59	56	57	28	-1	42	15	51	40	-1	-1	-1	43	-1	-1	-1
-1	-1	50	37	-1	-1	-1	-1	19	-1	14	-1	-1	63	55	-1	30	57	44	56	21	58	-1	38	-1	-1	16	11	-1	-1	-1	47	27	26	13	-1	-1	51	29	-1	40	45	59	-1	-1	33	-1	-1	49	43	-1	18	39	35	-1	-1	-1	53	60	-1	54	3	-1	32
52	-1	28	-1	-1	36	-1	-1	-1	59	56	-1	7	-1	50	2	14	35	-1	33	25	26	-1	29	22	62	40	-1	15	-1	49	-1	24	-1	-1	45	51	-1	-1	32	63	18	48	-1	-1	-1	9	54	20	-1	53	12	61	4	-1	30	47	-1	-1	-1	39	44	-1	23
63	-1	15	33	-1	-1	51	-1	-1	-1	46	-1	1	54	60	-1	-1	-1	-1	-1	-1	45	12	-1	48	64	19	-1	-1	-1	-1	-1	-1	-1	-1	30	7	14	-1	-1	-1	6	25	-1	-1	44	-1	62	11	42	-1	-1	49	-1	35	27	-1	-1	-1	55	-1	-1	-1	-1
-1	-1	-1	1	-1	-1	-1	9	-1	8	42	38	-1	57	-1	-1	4	-1	47	5	49	-1	-1	27	45	-1	60	37	-1	16	41	-1	63	34	54	-1	-1	40	-1	-1	-1	-1	-1	10	-1	14	-1	-1	17	-1	25	24	-1	-1	-1	64	-1	30	-1	-1	-1	-1	-1	36
-1	-1	-1	-1	-1	25	-1	-1	-1	53	-1	33	-1	39	34	61	50	-1	-1	41	57	8	-1	56	27	35	17	-1	-1	-1	10	44	-1	-1	16	28	-1	-1	-1	62	36	13	-1	15	46	45	42	32	47	-1	54	-1	1	-1	52	7	3	43	-1	4	60	31	64	-1
35	-1	42	48	14	59	43	24	-1	-1	40	45	-1	-1	49	-1	-1	-1	64	63	3	-1	22	-1	4	-1	61	-1	38	57	-1	-1	-1	-1	-1	37	44	-1	-1	-1	-1	-1	-1	30	33	21	-1	-1	-1	51	-1	-1	-1	55	-1	19	-1	-1	-1	54	50	26	53	-1
-1	-1	45	64	54	-1	6	-1	-1	19	-1	-1	-1	37	-1	63	44	-1	51	-1	-1	62	59	60	-1	25	-1	39	1	-1	-1	-1	15	23	-1	49	-1	-1	13	38	24	-1	-1	35	-1	-1	31	55	-1	-1	-1	-1	8	28	-1	21	57	18	11	-1	-1	12	-1	48
-1	50	38	40	62	-1	-1	11	-1	30	51	-1	-1	-1	14	23	-1	-1	-1	15	-1	-1	-1	-1	7	42	55	18	6	59	-1	-1	4	9	8	-1	20	-1	-1	-1	-1	2	52	-1	-1	28	-1	19	33	-1	-1	60	45	-1	26	39	56	49	1	-1	24	10	27	-1
39	-1	56	-1	-1	-1	-1	-1	-1	-1	-1	4	-1	-1	-1	-1	-1	-1	55	-1	1	30	23	-1	-1	24	-1	33	13	51	20	63	-1	-1	-1	21	-1	17	26	-1	-1	27	-1	-1	43	49	-1	-1	15	-1	-1	44	38	-1	62	46	-1	59	-1	-1	45	52	-1	16
-1	8	-1	-1	64	42	55	-1	-1	-1	-1	58	-1	-1	7	-1	13	27	23	36	10	-1	32	-1	63	-1	-1	24	-1	41	16	-1	35	-1	22	26	49	-1	60	45	52	-1	-1	-1	37	57	3	-1	-1	54	-1	-1	-1	-1	-1	48	21	-1	5	46	56	-1	-1	51
-1	-1	-1	-1	37	-1	-1	44	2	-1	-1	-1	-1	-1	-1	52	28	40	-1	-1	17	61	15	62	-1	33	45	-1	-1	13	9	-1	39	19	-1	-1	3	6	23	-1	7	53	43	-1	-1	64	32	-1	-1	59	47	58	-1	-1	8	35	-1	1	-1	57	4	41	-1	10
-1	57	59	-1	33	51	-1	-1	13	-1	62	19	-1	34	-1	24	29	1	31	54	-1	63	-1	-1	42	-1	-1	-1	46	50	-1	26	55	28	-1	43	-1	-1	37	16	15	-1	47	2	-1	58	27	-1	44	-1	-1	36	14	-1	30	-1	-1	-1	-1	22	32	6	11	-1
32	-1	47	-1	-1	-1	-1	-1	-1	-1	59	-1	61	64	-1	57	48	43	-1	-1	44	5	-1	24	-1	60	-1	-1	-1	-1	-1	-1	-1	31	-1	-1	-1	54	9	-1	45	35	-1	8	51	12	56	30	37	62	-1	-1	53	6	22	50	2	-1	-1	-1	-1	-1	25	28
-1	53	-1	-1	49	-1	10	-1	-1	1	-1	-1	-1	5	-1	-1	33	-1	-1	-1	20	64	-1	25	-1	-1	34	30	55	52	57	-1	36	-1	61	-1	47	-1	21	-1	19	-1	63	-1	42	-1	-1	-1	-1	-1	-1	45	23	-1	7	4	-1	9	-1	-1	-1	-1	-1	44
-1	-1	62	-1	23	-1	61	48	51	-1	-1	-1	-1	36	30	-1	52	11	-1	-1	-1	-1	-1	-1	-1	-1	6	-1	-1	-1	-1	39	-1	12	-1	29	-1	-1	24	41	-1	-1	-1	34	22	-1	-1	5	-1	3	60	57	-1	-1	-1	-1	58	-1	27	35	-1	50	37	59
-1	2	-1	-1	-1	-1	50	28	-1	31	-1	48	-1	45	-1	41	51	14	22	-1	-1	37	3	-1	-1	58	-1	64	-1	53	-1	-1	62	-1	57	-1	-1	-1	-1	59	-1	-1	46	39	11	61	6	9	-1	-1	-1	-1	-1	27	-1	-1	60	-1	55	-1	38	-1	23	47
-1	-1	46	-1	9	60	-1	14	-1	37	23	53	-1	-1	27	50	-1	-1	-1	-1	-1	59	-1	-1	-1	-1	-1	-1	61	-1	-1	32	-1	-1	58	51	25	38	-1	-1	21	-1	-1	-1	62	-1	33	-1	1	64	-1	26	16	-1	-1	24	-1	-1	-1	-1	-1	-1	-1	-1
64 
53 35 36 52
38 32 35 5
51 41 11 34
48 8 2 6
63 5 64 39
6 24 41 21
13 29 14 10
56 43 9 3
39 15 42 1
31 58 56 33
2 46 58 6
14 41 1 53
47 10 35 24
31 32 16 64
15 63 29 48
11 61 63 58
31 18 55 45
27 56 52 7
49 63 64 2
31 38 5 35
44 34 41 25
43 36 40 6
23 6 53 47
63 62 47 19
58 44 33 4
36 35 41 44
31 52 5 30
50 24 62 28
21 19 19 37
31 25 14 32
4 3 12 45
23 62 35 8
30 60 57 11
33 38 53 49
33 30 25 40
35 38 53 53
50 47 8 12
59 23 16 35
22 38 41 16
16 40 41 56
9 2 60 7
12 16 35 43
64 4 30 31
42 7 24 15
33 10 7 47
20 23 10 40
56 4 12 58
2 21 42 29
38 35 20 16
29 5 25 13
5 13 52 59
63 52 54 13
27 52 1 39
32 26 2 17
39 21 33 8
61 8 28 64
40 23 38 56
51 9 24 33
27 27 41 61
35 49 56 44
16 5 5 32
37 49 51 62
1 15 55 54
17 17 11 41
